CMD:
./solvers/bin/cadical --plain --no-reduce -t 1600 ./data/cnfs//vis_arrays_am2901/vis_arrays_am2901.9.cnf

c --- [ banner ] -------------------------------------------------------------
c 
c CaDiCaL SAT Solver
c Copyright (c) 2016-2024
c A. Biere, M. Fleury, N. Froleyks, K. Fazekas, F. Pollitt, T. Faller
c JKU Linz, University of Freiburg, TU Wien
c 
c Version 2.1.3 5296d3d2a9bf48c154ab2acb5e44625776d821bf
c g++ (Gentoo 12.3.1_p20230526 p2) 12.3.1 20230526 -Wall -Wextra -O3 -DNDEBUG
c Sat Aug 9 07:26:21 PDT 2025 Linux cedar2.int.cedar.computecanada.ca 5.14.0-362.24.2.el9_3.x86_64 x86_64
c 
c --- [ limit ] --------------------------------------------------------------
c 
c setting time limit to 1600 seconds real time (due to '-t 1600')
c 
c --- [ parsing input ] ------------------------------------------------------
c 
c reading DIMACS file from './data/cnfs//vis_arrays_am2901/vis_arrays_am2901.9.cnf'
c opening file to read './data/cnfs//vis_arrays_am2901/vis_arrays_am2901.9.cnf'
c found 'p cnf 10460 29468' header
c parsed 29468 clauses in 0.00 seconds process time
c 
c --- [ options ] ------------------------------------------------------------
c 
c   --compact=false                (different from default 'true')
c   --decompose=false              (different from default 'true')
c   --deduplicate=false            (different from default 'true')
c   --elim=false                   (different from default 'true')
c   --probe=false                  (different from default 'true')
c   --reduce=false                 (different from default 'true')
c   --subsume=false                (different from default 'true')
c   --ternary=false                (different from default 'true')
c   --transred=false               (different from default 'true')
c   --vivify=false                 (different from default 'true')
c 
c --- [ solving ] ------------------------------------------------------------
c 
c time measured in process time since initialization
c 
c  seconds  reductions  redundant  irredundant
c         MB    restarts       trail     variables
c          level   conflicts       glue       remaining
c 
c *  0.01  8  0 0   0    0    0  0% 0 28846 9849 94%
c {  0.01  9  0 0   0    0    0  0% 0 28846 9849 94%
c i  0.01  9 105 0   0   11   10 16% 2 28846 9848 94%
c }  0.04  9 38 0 157 1000  897 28% 5 28846 9848 94%
c [  0.04  9  0 0 157 1000  897  0% 0 28846 9848 94%
c O  0.04  9 35 0 157 1004  901 20% 4 28846 9848 94%
c ]  0.09  9 12 0 158 3001 2643 24% 6 28846 9848 94%
c {  0.09  9 38 0 158 3001 2643 28% 5 28846 9848 94%
c F  0.09 10 38 0 160 3006 2648 28% 5 28846 9848 94%
c #  0.20 10 19 0 525 6007 5288 24% 5 28846 9848 94%
c }  0.23 10 17 0 589 7004 5970 24% 5 28846 9848 94%
c [  0.23 10 12 0 589 7004 5970 24% 6 28846 9848 94%
c i  0.23 10 11 0 590 7110 6005 24% 6 28846 9765 93%
c i  0.24 10 11 0 590 7430 6187 24% 6 28846 9639 92%
c i  0.24 10 10 0 590 7475 6209 23% 6 28846 9556 91%
c i  0.24 10 10 0 590 7509 6218 23% 5 28846 9372 90%
c i  0.24 10 10 0 590 7512 6219 23% 5 28846 9347 89%
c i  0.24 10 10 0 590 7514 6220 23% 5 28846 9322 89%
c i  0.24 10 10 0 590 7515 6220 23% 5 28846 9297 89%
c ]  0.24 10 10 0 590 7518 6221 23% 5 28846 9027 86%
c 
c  seconds  reductions  redundant  irredundant
c         MB    restarts       trail     variables
c          level   conflicts       glue       remaining
c 
c 0  0.24 10 10 0 590 7518 6221 23% 5 28846 9027 86%
c 
c --- [ result ] -------------------------------------------------------------
c 
s UNSATISFIABLE
c 
c --- [ run-time profiling ] -------------------------------------------------
c 
c process time taken by individual solving procedures
c (percentage relative to process time for solving)
c 
c         0.24   99.96% search
c         0.17   70.55% unstable
c         0.07   29.27% stable
c         0.00    2.05% parse
c         0.00    0.12% lucky
c         0.00    0.00% simplify
c   =================================
c         0.24   97.79% solve
c 
c last line shows process time for solving
c (percentage relative to total process time)
c 
c --- [ statistics ] ---------------------------------------------------------
c 
c chronological:              1992        26.50 %  of conflicts
c conflicts:                  7518     31455.67    per second
c decisions:                 17997     75300.31    per second
c fixed:                      1431        13.68 %  of all variables
c learned:                    7236        96.25 %  per conflict
c learned_lits:             113292       100.00 %  learned literals
c minimized:                     0         0.00 %  learned literals
c shrunken:                  26428        23.33 %  learned literals
c minishrunken:               9331         8.24 %  learned literals
c otfs:                         92         1.22 %  of conflict
c propagations:            4733830        19.81 M  per second
c rephased:                      3      2506.00    interval
c restarts:                    590        12.74    interval
c stabilizing:                   2        33.45 %  of conflicts
c subsumed:                   1006         2.79 %  of all clauses
c strengthened:                 92         0.26 %  of all clauses
c 
c seconds are measured in process time for solving
c 
c --- [ resources ] ----------------------------------------------------------
c 
c total process time since initialization:         0.24    seconds
c total real time since initialization:            0.25    seconds
c maximum resident set size of process:           30.79    MB
c 
c --- [ shutting down ] ------------------------------------------------------
c 
c exit 20
